c IN1002 Introduction to Algorithms!
c top secret ID string c852f34346
c 4 variables and 6 clauses
p cnf 4 6
c each line is a clause, 0 marks the end
2 -2 4 0
2 1 -1 0
1 4 0
-3 4 -3 0
2 -4 -4 0
-3 -3 -1 0
c Good luck!
